Route #1: 39 7 43 20 47 32
Route #2: 25 28 12 53 8 9 51 17 34
Route #3: 18 36 38 19 41 26 56
Route #4: 24 3 10 21 44 49 48 13 33
Route #5: 45 6 31 11 15 1
Route #6: 55 2 30 22 42 14 37
Route #7: 23 46 5 27 16 50 52
Route #8: 4 29 35 40 54
Cost 1239.7800906399214